RT is False
Default write of storage_offers_DA.csv just to have a file (but constraint should be inactive)
Reading model...
...model read.
creating competitive generators file...
...competitive generators recorded.
Loading data...
.. day-ahead data with real-time VRE data read.
Compiling instance...
...instance created.
Creating Offer Mitigation (model will solve as dispatch if TRUE)...
NOTE: storage offers will not be mitigated
...storage offer mitigation file created
Converting model to MPEC...
...converted
NOTE: initial MIP solve with only storage competitive to get feasible solution
Solving...

Welcome to IBM(R) ILOG(R) CPLEX(R) Interactive Optimizer 12.9.0.0
  with Simplex, Mixed Integer & Barrier Optimizers
5725-A06 5725-A29 5724-Y48 5724-Y49 5724-Y54 5724-Y55 5655-Y21
Copyright IBM Corp. 1988, 2019.  All Rights Reserved.

Type 'help' for a list of available commands.
Type 'help' followed by a command name for more
information on commands.

CPLEX> Logfile 'cplex.log' closed.
Logfile 'C:\Users\llavin\Desktop\test826\logs\tmpil9nfacc.cplex.log' open.
CPLEX> New value for parallel optimization mode: -1
CPLEX> New value for emphasis for MIP optimization: 1
CPLEX> New value for mixed integer optimality gap tolerance: 0.01
CPLEX> New value for integrality tolerance: 1e-12
CPLEX> New value for deterministic time limit in ticks: 75000
CPLEX> Problem 'C:\Users\llavin\Desktop\test826\logs\tmpn7fio1h7.pyomo.lp' read.
Read time = 0.22 sec. (13.92 ticks)
CPLEX> Problem name         : C:\Users\llavin\Desktop\test826\logs\tmpn7fio1h7.pyomo.lp
Objective sense      : Maximize
Variables            :   53809  [Nneg: 1,  Box: 22004,  Free: 4464,
                                 Binary: 27340]
Objective nonzeros   :    9027
Linear constraints   :  123253  [Less: 41346,  Greater: 59096,  Equal: 22811]
  Nonzeros           :  293215
  RHS nonzeros       :   67489

Variables            : Min LB: -5000.000        Max UB: 1000000.       
Objective nonzeros   : Min   : 0.5083333        Max   : 2500.000       
Linear constraints   :
  Nonzeros           : Min   : 0.5083333        Max   : 1000000.       
  RHS nonzeros       : Min   : 0.5083333        Max   : 1000000.       
CPLEX> CPXPARAM_Parallel                                -1
CPXPARAM_Emphasis_MIP                            1
CPXPARAM_DetTimeLimit                            75000
CPXPARAM_MIP_Tolerances_MIPGap                   0.01
CPXPARAM_MIP_Tolerances_Integrality              9.9999999999999998e-13
Tried aggregator 4 times.
MIP Presolve eliminated 88676 rows and 18978 columns.
MIP Presolve added 3375 rows and 0 columns.
MIP Presolve modified 24845 coefficients.
Aggregator did 12982 substitutions.
Reduced MIP has 24970 rows, 21292 columns, and 71872 nonzeros.
Reduced MIP has 8415 binaries, 0 generals, 0 SOSs, and 0 indicators.
Presolve time = 0.33 sec. (192.35 ticks)
Probing fixed 362 vars, tightened 4014 bounds.
Probing time = 0.08 sec. (19.01 ticks)
Tried aggregator 2 times.
MIP Presolve eliminated 822 rows and 727 columns.
MIP Presolve modified 3038 coefficients.
Aggregator did 38 substitutions.
Reduced MIP has 24110 rows, 20527 columns, and 69382 nonzeros.
Reduced MIP has 8052 binaries, 0 generals, 0 SOSs, and 0 indicators.
Presolve time = 0.11 sec. (90.06 ticks)
Probing fixed 1 vars, tightened 237 bounds.
Probing time = 0.16 sec. (23.80 ticks)
Clique table members: 44783.
MIP emphasis: integer feasibility.
MIP search method: dynamic search.
Parallel mode: opportunistic, using up to 32 threads.
Root relaxation solution time = 0.39 sec. (595.60 ticks)

        Nodes                                         Cuts/
   Node  Left     Objective  IInf  Best Integer    Best Bound    ItCnt     Gap

      0     0      495.9439    62                    495.9439     4998         
      0     0      492.3203     5                     Cuts: 4     5001         
      0     0      492.3203     7                     Cuts: 2     5005         
      0     0      492.3202    10                     Cuts: 6     5013         
      0     6    infeasible                       Flowcuts: 1     5045         
Elapsed time = 3.56 sec. (1664.72 ticks, tree = 0.02 MB, solutions = 1)
*    67+   18                          253.4870      432.5730            70.65%
    323    15    infeasible            256.9524      321.4102    11809   25.09%
    450    15    infeasible            256.9524      321.4102    11811   25.09%
    606    14    infeasible            256.9524      321.4102    11624   25.09%
    735    25      321.4102     2      256.9524      321.4102    12121   25.09%
    836    36    infeasible            256.9524      321.4102    12530   25.09%
    951    28    infeasible            256.9524      321.4102    12269   25.09%
   1086    66    infeasible            256.9524      321.4102    13019   25.09%
   1237    55    infeasible            256.9524      321.4102    12943   25.09%
   1699    95    infeasible            256.9524      321.4102    13792   25.09%
Elapsed time = 17.88 sec. (4596.02 ticks, tree = 0.29 MB, solutions = 4)
   2080   146    infeasible            256.9524      321.4102    14373   25.09%
   2417   199    infeasible            256.9524      321.4102    14818   25.09%
   2685   228      321.4102     2      256.9524      321.4102    15098   25.09%
   2960   330      321.4102     2      256.9524      321.4102    15558   25.09%
   3225   358    infeasible            256.9524      321.4102    16173   25.09%
   3479   375      321.4102     2      256.9524      321.4102    16625   25.09%
   3714   370    infeasible            256.9524      321.4102    16575   25.09%
   3927   391      321.4102     3      256.9524      321.4102    16979   25.09%
   4132   431      321.4102     2      256.9524      321.4102    17513   25.09%
   4341   401    infeasible            256.9524      321.4102    17207   25.09%
Elapsed time = 47.23 sec. (14175.33 ticks, tree = 1.45 MB, solutions = 4)
   4528   444      321.4102     3      256.9524      321.4102    17666   25.09%
   4729   449    infeasible            256.9524      321.4102    17851   25.09%
   4934   508    infeasible            256.9524      321.4102    18241   25.09%
   5107   496      321.4102     2      256.9524      321.4102    18507   25.09%
   5285   572      321.4102     2      256.9524      321.4102    19204   25.09%
   5455   622    infeasible            256.9524      321.4102    19783   25.09%
   5627   621    infeasible            256.9524      321.4102    19791   25.09%
   5808   605    infeasible            256.9524      321.4102    19729   25.09%
   5958   652    infeasible            256.9524      321.4102    20261   25.09%
   6116   656    infeasible            256.9524      321.4102    20349   25.09%
Elapsed time = 56.50 sec. (23768.01 ticks, tree = 18.37 MB, solutions = 4)
   6262   664      321.4102     2      256.9524      321.4102    20410   25.09%
   6389   718      321.4102     2      256.9524      321.4102    20993   25.09%
   6553   721      321.4102     2      256.9524      321.4102    21026   25.09%
   6686   699    infeasible            256.9524      321.4102    20738   25.09%
   6811   729      321.4102     2      256.9524      321.4102    21090   25.09%
   6933   739      321.4102     3      256.9524      321.4102    21275   25.09%
   7067   729    infeasible            256.9524      321.4102    21165   25.09%
   7201   772    infeasible            256.9524      321.4102    21966   25.09%
   7327   769      321.4102     2      256.9524      321.4102    21944   25.09%
   7451   768    infeasible            256.9524      321.4102    21948   25.09%
Elapsed time = 64.34 sec. (33370.71 ticks, tree = 26.68 MB, solutions = 4)
   7585   781    infeasible            256.9524      321.4102    22257   25.09%
   7701   884      321.4102     2      256.9524      321.4102    23235   25.09%
   7813   773      321.4102     2      256.9524      321.4102    22033   25.09%
   7927   845    infeasible            256.9524      321.4102    22819   25.09%
   8035   832      321.4102     2      256.9524      321.4102    22689   25.09%
   8150   880      321.4102     2      256.9524      321.4102    23182   25.09%
   8262   845    infeasible            256.9524      321.4102    22825   25.09%
   8369   871      321.4102     3      256.9524      321.4102    23092   25.09%
   8471   893    infeasible            256.9524      321.4102    23336   25.09%
   8578   878      321.4102     2      256.9524      321.4102    23156   25.09%
Elapsed time = 75.23 sec. (42942.22 ticks, tree = 30.20 MB, solutions = 4)
   8696   894      321.4102     3      256.9524      321.4102    23341   25.09%
   8810   862      321.4102     2      256.9524      321.4102    23012   25.09%
   8931   924      321.4102     3      256.9524      321.4102    23534   25.09%
   9040   895      321.4102     3      256.9524      321.4102    23348   25.09%
   9150   976      321.4102     2      256.9524      321.4102    24047   25.09%
   9267   933      321.4102     2      256.9524      321.4102    23703   25.09%
   9375   925      321.4102     2      256.9524      321.4102    23634   25.09%
   9480   940    infeasible            256.9524      321.4102    23771   25.09%
   9570  1030    infeasible            256.9524      321.4102    24463   25.09%
   9678  1079      321.4102     2      256.9524      321.4102    24802   25.09%
Elapsed time = 88.27 sec. (52526.58 ticks, tree = 30.17 MB, solutions = 4)
   9785   976      321.4102     2      256.9524      321.4102    24062   25.09%
   9923  1018      321.4102     2      256.9524      321.4102    24354   25.09%
  10019  1105    infeasible            256.9524      321.4102    24998   25.09%
  10113  1111      321.4102     2      256.9524      321.4102    25043   25.09%
  10209  1113      321.4102     2      256.9524      321.4102    25059   25.09%
  10312  1146      321.4102     2      256.9524      321.4102    25384   25.09%
  10410  1103      321.4102     3      256.9524      321.4102    24993   25.09%
  10484  1110      321.4102     2      256.9524      321.4102    25031   25.09%
  10590  1163      318.3974     2      256.9524      321.4102    25623   25.09%
  10706  1181      321.4102     3      256.9524      321.4102    25827   25.09%
Elapsed time = 92.89 sec. (62208.40 ticks, tree = 28.61 MB, solutions = 4)
  10790  1167    infeasible            256.9524      321.4102    25698   25.09%
  10847  1183    infeasible            256.9524      321.4102    25858   25.09%
  10910  1174    infeasible            256.9524      321.4102    25754   25.09%
  10971  1117      321.4102     3      256.9524      321.4102    25151   25.09%
  11036  1134    infeasible            256.9524      321.4102    25370   25.09%
  11093  1156      321.4102     2      256.9524      321.4102    25440   25.09%
  11130  1178    infeasible            256.9524      321.4102    25836   25.09%
  11138  1187      321.4102     2      256.9524      321.4102    25850   25.09%
  11159  1184      321.4102     2      256.9524      321.4102    25876   25.09%
* 11165+  901                          321.4102      321.4102             0.00%
* 11165+  600                          321.4102      321.4102             0.00%
  11165   599        cutoff            321.4102      321.4102    29926    0.00%
Elapsed time = 97.92 sec. (72766.63 ticks, tree = 30.66 MB, solutions = 6)

Cover cuts applied:  1
Implied bound cuts applied:  4
Flow cuts applied:  4
Mixed integer rounding cuts applied:  2
Gomory fractional cuts applied:  7

Root node processing (before b&c):
  Real time             =    2.42 sec. (1653.22 ticks)
Parallel b&c, 32 threads:
  Real time             =   95.53 sec. (71116.81 ticks)
  Sync time (average)   =    2.85 sec.
  Wait time (average)   =    0.00 sec.
                          ------------
Total (root+branch&cut) =   97.95 sec. (72770.03 ticks)

Solution pool: 6 solutions saved.

MIP - Integer optimal solution:  Objective =  3.2141016726e+02
Solution time =   97.97 sec.  Iterations = 29926  Nodes = 11165
Deterministic time = 72770.18 ticks  (742.79 ticks/sec)

CPLEX> Incumbent solution written to file 'C:\Users\llavin\Desktop\test826\logs\tmpz79htdxd.cplex.sol'.
CPLEX> NOTE: no warmstart specified for MIP iteration, default behavior is true
NOTE: resolving with all competitive generators using storage-only solution to warmstart
Solving...

Welcome to IBM(R) ILOG(R) CPLEX(R) Interactive Optimizer 12.9.0.0
  with Simplex, Mixed Integer & Barrier Optimizers
5725-A06 5725-A29 5724-Y48 5724-Y49 5724-Y54 5724-Y55 5655-Y21
Copyright IBM Corp. 1988, 2019.  All Rights Reserved.

Type 'help' for a list of available commands.
Type 'help' followed by a command name for more
information on commands.

CPLEX> Logfile 'cplex.log' closed.
Logfile 'C:\Users\llavin\Desktop\test826\logs\tmpjowzibj9.cplex.log' open.
CPLEX> New value for parallel optimization mode: -1
CPLEX> New value for emphasis for MIP optimization: 1
CPLEX> New value for mixed integer optimality gap tolerance: 0.01
CPLEX> New value for integrality tolerance: 1e-12
CPLEX> New value for deterministic time limit in ticks: 75000
CPLEX> Problem 'C:\Users\llavin\Desktop\test826\logs\tmp9g9k9zu3.pyomo.lp' read.
Read time = 0.23 sec. (13.94 ticks)
CPLEX> MIP start file 'C:\Users\llavin\Desktop\test826\logs\tmpeo_eyerv.cplex.mst' read.
CPLEX> Problem name         : C:\Users\llavin\Desktop\test826\logs\tmp9g9k9zu3.pyomo.lp
Objective sense      : Maximize
Variables            :   54529  [Nneg: 1,  Box: 22724,  Free: 4464,
                                 Binary: 27340]
Objective nonzeros   :    9723
Linear constraints   :  123253  [Less: 41346,  Greater: 59096,  Equal: 22811]
  Nonzeros           :  293215
  RHS nonzeros       :   67489

Variables            : Min LB: -5000.000        Max UB: 1000000.       
Objective nonzeros   : Min   : 0.5083333        Max   : 2500.000       
Linear constraints   :
  Nonzeros           : Min   : 0.5083333        Max   : 1000000.       
  RHS nonzeros       : Min   : 0.5083333        Max   : 1000000.       
CPLEX> CPXPARAM_Parallel                                -1
CPXPARAM_Emphasis_MIP                            1
CPXPARAM_DetTimeLimit                            75000
CPXPARAM_MIP_Tolerances_MIPGap                   0.01
CPXPARAM_MIP_Tolerances_Integrality              9.9999999999999998e-13
Warning:  No solution found from 1 MIP starts.
Retaining values of one MIP start for possible repair.
Tried aggregator 4 times.
MIP Presolve eliminated 88676 rows and 19698 columns.
MIP Presolve added 3375 rows and 0 columns.
MIP Presolve modified 24845 coefficients.
Aggregator did 12982 substitutions.
Reduced MIP has 24970 rows, 21292 columns, and 71872 nonzeros.
Reduced MIP has 8415 binaries, 0 generals, 0 SOSs, and 0 indicators.
Presolve time = 0.33 sec. (192.76 ticks)
Probing fixed 362 vars, tightened 4014 bounds.
Probing time = 0.08 sec. (19.01 ticks)
Tried aggregator 2 times.
MIP Presolve eliminated 822 rows and 727 columns.
MIP Presolve modified 3038 coefficients.
Aggregator did 38 substitutions.
Reduced MIP has 24110 rows, 20527 columns, and 69382 nonzeros.
Reduced MIP has 8052 binaries, 0 generals, 0 SOSs, and 0 indicators.
Presolve time = 0.13 sec. (90.06 ticks)
Probing fixed 1 vars, tightened 237 bounds.
Probing time = 0.14 sec. (23.80 ticks)
Clique table members: 44783.
MIP emphasis: integer feasibility.
MIP search method: dynamic search.
Parallel mode: opportunistic, using up to 32 threads.
Root relaxation solution time = 0.47 sec. (641.18 ticks)

        Nodes                                         Cuts/
   Node  Left     Objective  IInf  Best Integer    Best Bound    ItCnt     Gap

      0     0   116961.2132   283                 116961.2132     5757         
      0     0   111524.3763   161                   Cuts: 143     5910         
      0     0   111086.7453   164                    Cuts: 29     5983         
      0     0   111036.9103   168                    Cuts: 11     5999         
Repair heuristic found nothing.
      0     7    infeasible                      Flowcuts: 10     6115         
Elapsed time = 3.72 sec. (1874.03 ticks, tree = 0.02 MB, solutions = 0)
    508   223    91232.1368   128                 105014.6166     8380         
    996   661    68467.1389    93                 105014.6166    16159         
   1604   917    -7381.2116    87                 105014.6166    25394         
   2276  1585    19940.1613    47                 105014.6166    45248         
   2933  1739    47892.3927    93                 105014.6166    53431         
   3425  1880   -22594.1969    45                 104666.8765    59669         
   4029  2244     -226.1041    36                 104666.8765    80431         
   4625  2608    30740.4489    67                 104666.8765    91031         
   5167  2718   -15605.3372    58                 104666.8765    94892         
   7479  4151    30283.0857    52                 104666.8765   170149         
Elapsed time = 20.48 sec. (4978.17 ticks, tree = 154.60 MB, solutions = 0)
   9653  5216    43273.4141    72                 102675.9666   226731         
  11753  5652    39528.0080    83                 101873.7013   246305         
  13916  6174   -57152.8814    41                 100953.7001   280155         
  16214  8112     3881.6112   101                  98836.7001   374790         
  18528  8355  -194689.9529    82                  96540.9924   383639         
  20868 10384    -4235.2200    39                  92092.1981   472941         
  23202 11964  -380377.7548    45                  89707.7927   536374         
  25441 13538   -59543.9111    58                  88388.7086   595023         
  27742 16174   -33865.1962    74                  81845.7738   704682         
  30031 16485     7914.0932    53                  73854.0581   717707         
Elapsed time = 141.52 sec. (14517.48 ticks, tree = 951.18 MB, solutions = 0)
  32349 19988    infeasible                        58108.7157   872091         
  34726 19217     7615.9833    69                  55699.7831   840289         
  37033 20410  -229078.1405    75                  55699.7831   885915         
  39513 23880     1685.7243    40                  55699.7831  1024617         
* 41252+11845                         3647.3599    55699.7831              --- 
  43550 24826    infeasible           3647.3599    55699.7831  1069327     --- 
  45492 25160    infeasible           3647.3599    55699.7831  1081303     --- 
  45828 12360    infeasible           3647.3599    43336.8622  1183045     --- 
  47604   662        cutoff          10080.4953    39688.6195  1198041  293.72%
  51075  2157    13048.9842     3    10080.4953    39688.6195  1219191  293.72%
Elapsed time = 225.20 sec. (25362.49 ticks, tree = 12.31 MB, solutions = 3)
  55522  5007    12538.4538     4    10080.4953    39688.6195  1237377  293.72%
  60134  8468    12511.3915     4    10080.4953    39688.6195  1250078  293.72%
  64979 11886    13051.7369     4    10080.4953    39688.6195  1262498  293.72%
  69723 17234    12520.5592     4    10080.4953    39688.6195  1282643  293.72%
  74201 19174    13051.7369     3    10080.4953    39688.6195  1289617  293.72%
  76816 21963    12573.0497     4    10080.4953    39688.6195  1299795  293.72%
  76851 24140    12573.0497     4    10080.4953    39688.6195  1307583  293.72%
  77030 25379    infeasible          10080.4953    39688.6195  1312502  293.72%
  78691 25541    13032.3895     3    10080.4953    39688.6195  1313078  293.72%
  82871 25912    12487.3997     5    10080.4953    39688.6195  1314509  293.72%
Elapsed time = 270.30 sec. (34930.71 ticks, tree = 206.57 MB, solutions = 3)
  87789 25566    13046.6701     3    10080.4953    39688.6195  1313112  293.72%
  92381 26250    12573.0497     4    10080.4953    39688.6195  1315912  293.72%
  96804 30469    12548.4728     6    10080.4953    39688.6195  1332500  293.72%
 100962 31809    12995.7626     3    10080.4953    39688.6195  1337681  293.72%
 104412 37044    13051.7369     3    10080.4953    39688.6195  1358545  293.72%
 107499 44812    12990.7765     3    10080.4953    39688.6195  1388853  293.72%
 110024 51038    12559.9151     5    10080.4953    39688.6195  1413285  293.72%
 112397 52378    12559.9151     5    10080.4953    39688.6195  1418711  293.72%
 114785 56431    13032.3895     3    10080.4953    39688.6195  1434889  293.72%
 117281 56581    12540.7316     4    10080.4953    39688.6195  1435430  293.72%
Elapsed time = 371.36 sec. (44470.53 ticks, tree = 466.36 MB, solutions = 3)
 119817 57208    13032.3895     3    10080.4953    39688.6195  1437976  293.72%
 122473 63231    12995.7626     3    10080.4953    39688.6195  1462511  293.72%
 125180 59753    12571.3575     4    10080.4953    39688.6195  1448427  293.72%
 127892 62285    12573.0497     4    10080.4953    39688.6195  1458739  293.72%
 130477 63632    13051.7369     3    10080.4953    39688.6195  1464236  293.72%
 133000 67349    12548.4728     6    10080.4953    39688.6195  1478816  293.72%
 135441 100487    12547.8902     5    10080.4953    39688.6195  1619192  293.72%
 137954 68453    13051.7369     3    10080.4953    39688.6195  1483264  293.72%
 140391 70037    12548.4728     6    10080.4953    39688.6195  1489218  293.72%
 142915 74885    12548.4728     6    10080.4953    39688.6195  1508685  293.72%
Elapsed time = 409.97 sec. (54010.87 ticks, tree = 620.10 MB, solutions = 3)
 145391 72674    13048.9842     3    10080.4953    39688.6195  1499729  293.72%
 147253 93782    12520.5592     4    10080.4953    39688.6195  1590059  293.72%
 148514 101150    12573.0497     4    10080.4953    39688.6195  1622339  293.72%
 149356 76991    13032.3895     3    10080.4953    39688.6195  1517916  293.72%
 150660 78970    12573.0497     4    10080.4953    39688.6195  1526315  293.72%
 152703 79117    12985.5587     3    10080.4953    39688.6195  1527185  293.72%
 155629 94376    12487.3997     5    10080.4953    39688.6195  1592904  293.72%
 158615 80587    12990.7765     3    10080.4953    39688.6195  1533827  293.72%
 161490 85305    13046.6701     3    10080.4953    39688.6195  1554070  293.72%
 164242 83949    12573.0497     4    10080.4953    39688.6195  1548285  293.72%
Elapsed time = 409.98 sec. (63552.39 ticks, tree = 694.81 MB, solutions = 3)
 166722 102058    12548.4728     6    10080.4953    39688.6195  1626566  293.72%
 169095 94975    12511.3915     4    10080.4953    39688.6195  1595692  293.72%
 171513 91618    infeasible          10080.4953    39688.6195  1580616  293.72%
 174023 89949    12548.4728     6    10080.4953    39688.6195  1573773  293.72%
 176427 92173    12990.7765     3    10080.4953    39688.6195  1583019  293.72%
 178526 93261    12548.4728     6    10080.4953    39688.6195  1587724  293.72%
 179377 95822    13032.3895     3    10080.4953    39688.6195  1598671  293.72%
 179732 99299    12538.4538     4    10080.4953    39688.6195  1613759  293.72%
 180638 99418    infeasible          10080.4953    39688.6195  1614268  293.72%
 182353 99856    12571.3575     4    10080.4953    39688.6195  1616317  293.72%
Elapsed time = 413.11 sec. (73096.03 ticks, tree = 822.56 MB, solutions = 3)
 184331 99511    13048.9842     3    10080.4953    39688.6195  1614710  293.72%
 185818 100709    12547.8902     5    10080.4953    39688.6195  1620017  293.72%

Cover cuts applied:  30
Implied bound cuts applied:  40
Flow cuts applied:  86
Mixed integer rounding cuts applied:  18
Zero-half cuts applied:  1
Gomory fractional cuts applied:  8

Root node processing (before b&c):
  Real time             =    2.78 sec. (1867.58 ticks)
Parallel b&c, 32 threads:
  Real time             =  412.78 sec. (73146.07 ticks)
  Sync time (average)   =    4.76 sec.
  Wait time (average)   =    0.20 sec.
                          ------------
Total (root+branch&cut) =  415.56 sec. (75013.65 ticks)

Solution pool: 3 solutions saved.

MIP - Deterministic time limit exceeded, integer feasible:  Objective =  1.0080495311e+04
Current MIP best bound =  3.9688619545e+04 (gap = 29608.1, 293.72%)
Solution time =  415.58 sec.  Iterations = 1685272  Nodes = 185819 (115134)
Deterministic time = 75013.80 ticks  (180.50 ticks/sec)

CPLEX> Incumbent solution written to file 'C:\Users\llavin\Desktop\test826\logs\tmpsrwufut_.cplex.sol'.
CPLEX> Exporting results... 
